\ Model Cl_35_Ins_2.lp
\ LP format - for model browsing. Use MPS format to capture full model detail.
Maximize
 
Subject To
 obj1: y[0] = 0
 obj2: y[1] = 0
 obj1_Exp: - y[0] + 97 x[0] + 97 x[1] + 92 x[2] + 92 x[3] + 92 x[4]
   + 91 x[5] + 90 x[6] + 85 x[7] + 85 x[8] + 82 x[9] + 80 x[10] + 79 x[11]
   + 72 x[12] + 69 x[13] + 63 x[14] + 61 x[15] + 57 x[16] + 54 x[17]
   + 51 x[18] + 48 x[19] + 45 x[20] + 37 x[21] + 37 x[22] + 36 x[23]
   + 35 x[24] + 22 x[25] + 17 x[26] + 17 x[27] + 16 x[28] + 11 x[29]
   + 10 x[30] + 8 x[31] + 8 x[32] + 5 x[33] + 2 x[34] = 0
 obj2_Exp: - y[1] + 45 x[0] + 73 x[1] + 61 x[2] + 87 x[3] + 33 x[4]
   + 21 x[5] + 35 x[6] + 19 x[7] + 63 x[8] + 72 x[9] + 15 x[10] + 40 x[11]
   + 79 x[12] + 81 x[13] + 45 x[14] + 24 x[15] + 67 x[16] + 91 x[17]
   + 92 x[18] + 8 x[19] + 64 x[20] + 87 x[21] + 50 x[22] + 18 x[23]
   + 56 x[24] + 12 x[25] + 35 x[26] + 4 x[27] + 33 x[28] + 79 x[29]
   + 14 x[30] + 98 x[31] + x[32] + 97 x[33] + 70 x[34] = 0
 Budget: 107 x[0] + 107 x[1] + 102 x[2] + 102 x[3] + 102 x[4] + 101 x[5]
   + 100 x[6] + 95 x[7] + 95 x[8] + 92 x[9] + 90 x[10] + 89 x[11]
   + 82 x[12] + 79 x[13] + 73 x[14] + 71 x[15] + 67 x[16] + 64 x[17]
   + 61 x[18] + 58 x[19] + 55 x[20] + 47 x[21] + 47 x[22] + 46 x[23]
   + 45 x[24] + 32 x[25] + 27 x[26] + 27 x[27] + 26 x[28] + 21 x[29]
   + 20 x[30] + 18 x[31] + 18 x[32] + 15 x[33] + 12 x[34] <= 997
Bounds
Binaries
 x[0] x[1] x[2] x[3] x[4] x[5] x[6] x[7] x[8] x[9] x[10] x[11] x[12] x[13]
 x[14] x[15] x[16] x[17] x[18] x[19] x[20] x[21] x[22] x[23] x[24] x[25]
 x[26] x[27] x[28] x[29] x[30] x[31] x[32] x[33] x[34]
Generals
 y[0] y[1]
End
